p cnf 227 708
c weights 1.0 1.0 2.718281828459045 0.36787944117144233 2.718281828459045 0.36787944117144233 2.718281828459045 0.36787944117144233 2.718281828459045 0.36787944117144233 2.718281828459045 0.36787944117144233 2.718281828459045 0.36787944117144233 1.0 1.0 2.718281828459045 0.36787944117144233 2.718281828459045 0.36787944117144233 2.718281828459045 0.36787944117144233 2.718281828459045 0.36787944117144233 2.718281828459045 0.36787944117144233 2.718281828459045 0.36787944117144233 2.718281828459045 0.36787944117144233 1.0 1.0 2.718281828459045 0.36787944117144233 2.718281828459045 0.36787944117144233 2.718281828459045 0.36787944117144233 2.718281828459045 0.36787944117144233 2.718281828459045 0.36787944117144233 2.718281828459045 0.36787944117144233 2.718281828459045 0.36787944117144233 2.718281828459045 0.36787944117144233 2.718281828459045 0.36787944117144233 2.718281828459045 0.36787944117144233 1.0 1.0 2.718281828459045 0.36787944117144233 2.718281828459045 0.36787944117144233 2.718281828459045 0.36787944117144233 2.718281828459045 0.36787944117144233 2.718281828459045 0.36787944117144233 2.718281828459045 0.36787944117144233 2.718281828459045 0.36787944117144233 2.718281828459045 0.36787944117144233 1.0 1.0 2.718281828459045 0.36787944117144233 2.718281828459045 0.36787944117144233 2.718281828459045 0.36787944117144233 2.718281828459045 0.36787944117144233 2.718281828459045 0.36787944117144233 2.718281828459045 0.36787944117144233 2.718281828459045 0.36787944117144233 1.0 1.0 2.718281828459045 0.36787944117144233 2.718281828459045 0.36787944117144233 2.718281828459045 0.36787944117144233 2.718281828459045 0.36787944117144233 2.718281828459045 0.36787944117144233 2.718281828459045 0.36787944117144233 2.718281828459045 0.36787944117144233 1.0 1.0 2.718281828459045 0.36787944117144233 2.718281828459045 0.36787944117144233 2.718281828459045 0.36787944117144233 2.718281828459045 0.36787944117144233 1.0 1.0 2.718281828459045 0.36787944117144233 2.718281828459045 0.36787944117144233 2.718281828459045 0.36787944117144233 2.718281828459045 0.36787944117144233 2.718281828459045 0.36787944117144233 2.718281828459045 0.36787944117144233 2.718281828459045 0.36787944117144233 1.0 1.0 2.718281828459045 0.36787944117144233 2.718281828459045 0.36787944117144233 2.718281828459045 0.36787944117144233 2.718281828459045 0.36787944117144233 2.718281828459045 0.36787944117144233 2.718281828459045 0.36787944117144233 2.718281828459045 0.36787944117144233 2.718281828459045 0.36787944117144233 2.718281828459045 0.36787944117144233 2.718281828459045 0.36787944117144233 1.0 1.0 2.718281828459045 0.36787944117144233 2.718281828459045 0.36787944117144233 2.718281828459045 0.36787944117144233 2.718281828459045 0.36787944117144233 2.718281828459045 0.36787944117144233 1.0 1.0 2.718281828459045 0.36787944117144233 2.718281828459045 0.36787944117144233 2.718281828459045 0.36787944117144233 1.0 1.0 2.718281828459045 0.36787944117144233 2.718281828459045 0.36787944117144233 2.718281828459045 0.36787944117144233 1.0 1.0 2.718281828459045 0.36787944117144233 2.718281828459045 0.36787944117144233 2.718281828459045 0.36787944117144233 1.0 1.0 2.718281828459045 0.36787944117144233 2.718281828459045 0.36787944117144233 2.718281828459045 0.36787944117144233 1.0 1.0 2.718281828459045 0.36787944117144233 2.718281828459045 0.36787944117144233 2.718281828459045 0.36787944117144233 2.718281828459045 0.36787944117144233 2.718281828459045 0.36787944117144233 2.718281828459045 0.36787944117144233 2.718281828459045 0.36787944117144233 2.718281828459045 0.36787944117144233 2.718281828459045 0.36787944117144233 2.718281828459045 0.36787944117144233 1.0 1.0 2.718281828459045 0.36787944117144233 2.718281828459045 0.36787944117144233 2.718281828459045 0.36787944117144233 2.718281828459045 0.36787944117144233 2.718281828459045 0.36787944117144233 1.0 1.0 2.718281828459045 0.36787944117144233 2.718281828459045 0.36787944117144233 2.718281828459045 0.36787944117144233 2.718281828459045 0.36787944117144233 2.718281828459045 0.36787944117144233 1.0 1.0 2.718281828459045 0.36787944117144233 2.718281828459045 0.36787944117144233 2.718281828459045 0.36787944117144233 2.718281828459045 0.36787944117144233 2.718281828459045 0.36787944117144233 2.718281828459045 0.36787944117144233 1.0 1.0 2.718281828459045 0.36787944117144233 2.718281828459045 0.36787944117144233 2.718281828459045 0.36787944117144233 2.718281828459045 0.36787944117144233 1.0 1.0 2.718281828459045 0.36787944117144233 2.718281828459045 0.36787944117144233 2.718281828459045 0.36787944117144233 2.718281828459045 0.36787944117144233 1.0 1.0 2.718281828459045 0.36787944117144233 2.718281828459045 0.36787944117144233 2.718281828459045 0.36787944117144233 2.718281828459045 0.36787944117144233 2.718281828459045 0.36787944117144233 1.0 1.0 2.718281828459045 0.36787944117144233 2.718281828459045 0.36787944117144233 2.718281828459045 0.36787944117144233 1.0 1.0 2.718281828459045 0.36787944117144233 2.718281828459045 0.36787944117144233 2.718281828459045 0.36787944117144233 2.718281828459045 0.36787944117144233 1.0 1.0 2.718281828459045 0.36787944117144233 2.718281828459045 0.36787944117144233 2.718281828459045 0.36787944117144233 1.0 1.0 2.718281828459045 0.36787944117144233 2.718281828459045 0.36787944117144233 2.718281828459045 0.36787944117144233 1.0 1.0 2.718281828459045 0.36787944117144233 2.718281828459045 0.36787944117144233 2.718281828459045 0.36787944117144233 2.718281828459045 0.36787944117144233 1.0 1.0 2.718281828459045 0.36787944117144233 2.718281828459045 0.36787944117144233 2.718281828459045 0.36787944117144233 2.718281828459045 0.36787944117144233 2.718281828459045 0.36787944117144233 2.718281828459045 0.36787944117144233 1.0 1.0 2.718281828459045 0.36787944117144233 1.0 1.0 2.718281828459045 0.36787944117144233 2.718281828459045 0.36787944117144233 1.0 1.0 2.718281828459045 0.36787944117144233 2.718281828459045 0.36787944117144233 1.0 1.0 2.718281828459045 0.36787944117144233 2.718281828459045 0.36787944117144233 1.0 1.0 2.718281828459045 0.36787944117144233 2.718281828459045 0.36787944117144233 2.718281828459045 0.36787944117144233 2.718281828459045 0.36787944117144233 2.718281828459045 0.36787944117144233 1.0 1.0 2.718281828459045 0.36787944117144233 2.718281828459045 0.36787944117144233 2.718281828459045 0.36787944117144233 1.0 1.0 1.0 1.0 2.718281828459045 0.36787944117144233 2.718281828459045 0.36787944117144233 2.718281828459045 0.36787944117144233 1.0 1.0 1.0 1.0 2.718281828459045 0.36787944117144233 2.718281828459045 0.36787944117144233 1.0 1.0 2.718281828459045 0.36787944117144233 2.718281828459045 0.36787944117144233 1.0 1.0 1.0 1.0 2.718281828459045 0.36787944117144233 1.0 1.0 1.0 1.0 2.718281828459045 0.36787944117144233 1.0 1.0 2.718281828459045 0.36787944117144233 2.718281828459045 0.36787944117144233 1.0 1.0 2.718281828459045 0.36787944117144233 1.0 1.0 2.718281828459045 0.36787944117144233 2.718281828459045 0.36787944117144233 1.0 1.0 2.718281828459045 0.36787944117144233 2.718281828459045 0.36787944117144233 1.0 1.0 1.0 1.0 2.718281828459045 0.36787944117144233 1.0 1.0 1.0 1.0
2 1 57 0
2 -1 -57 0
-2 1 -57 0
-2 -1 57 0
3 1 82 0
3 -1 -82 0
-3 1 -82 0
-3 -1 82 0
4 1 133 0
4 -1 -133 0
-4 1 -133 0
-4 -1 133 0
5 1 138 0
5 -1 -138 0
-5 1 -138 0
-5 -1 138 0
6 1 153 0
6 -1 -153 0
-6 1 -153 0
-6 -1 153 0
7 1 190 0
7 -1 -190 0
-7 1 -190 0
-7 -1 190 0
9 8 44 0
9 -8 -44 0
-9 8 -44 0
-9 -8 44 0
10 8 109 0
10 -8 -109 0
-10 8 -109 0
-10 -8 109 0
11 8 138 0
11 -8 -138 0
-11 8 -138 0
-11 -8 138 0
12 8 206 0
12 -8 -206 0
-12 8 -206 0
-12 -8 206 0
13 8 207 0
13 -8 -207 0
-13 8 -207 0
-13 -8 207 0
14 8 215 0
14 -8 -215 0
-14 8 -215 0
-14 -8 215 0
15 8 220 0
15 -8 -220 0
-15 8 -220 0
-15 -8 220 0
17 16 27 0
17 -16 -27 0
-17 16 -27 0
-17 -16 27 0
18 16 36 0
18 -16 -36 0
-18 16 -36 0
-18 -16 36 0
19 16 82 0
19 -16 -82 0
-19 16 -82 0
-19 -16 82 0
20 16 86 0
20 -16 -86 0
-20 16 -86 0
-20 -16 86 0
21 16 133 0
21 -16 -133 0
-21 16 -133 0
-21 -16 133 0
22 16 153 0
22 -16 -153 0
-22 16 -153 0
-22 -16 153 0
23 16 157 0
23 -16 -157 0
-23 16 -157 0
-23 -16 157 0
24 16 175 0
24 -16 -175 0
-24 16 -175 0
-24 -16 175 0
25 16 223 0
25 -16 -223 0
-25 16 -223 0
-25 -16 223 0
26 16 226 0
26 -16 -226 0
-26 16 -226 0
-26 -16 226 0
28 27 65 0
28 -27 -65 0
-28 27 -65 0
-28 -27 65 0
29 27 76 0
29 -27 -76 0
-29 27 -76 0
-29 -27 76 0
30 27 115 0
30 -27 -115 0
-30 27 -115 0
-30 -27 115 0
31 27 133 0
31 -27 -133 0
-31 27 -133 0
-31 -27 133 0
32 27 190 0
32 -27 -190 0
-32 27 -190 0
-32 -27 190 0
33 27 194 0
33 -27 -194 0
-33 27 -194 0
-33 -27 194 0
34 27 206 0
34 -27 -206 0
-34 27 -206 0
-34 -27 206 0
35 27 217 0
35 -27 -217 0
-35 27 -217 0
-35 -27 217 0
37 36 44 0
37 -36 -44 0
-37 36 -44 0
-37 -36 44 0
38 36 76 0
38 -36 -76 0
-38 36 -76 0
-38 -36 76 0
39 36 138 0
39 -36 -138 0
-39 36 -138 0
-39 -36 138 0
40 36 148 0
40 -36 -148 0
-40 36 -148 0
-40 -36 148 0
41 36 190 0
41 -36 -190 0
-41 36 -190 0
-41 -36 190 0
42 36 194 0
42 -36 -194 0
-42 36 -194 0
-42 -36 194 0
43 36 210 0
43 -36 -210 0
-43 36 -210 0
-43 -36 210 0
45 44 98 0
45 -44 -98 0
-45 44 -98 0
-45 -44 98 0
46 44 138 0
46 -44 -138 0
-46 44 -138 0
-46 -44 138 0
47 44 173 0
47 -44 -173 0
-47 44 -173 0
-47 -44 173 0
48 44 209 0
48 -44 -209 0
-48 44 -209 0
-48 -44 209 0
49 44 224 0
49 -44 -224 0
-49 44 -224 0
-49 -44 224 0
50 44 226 0
50 -44 -226 0
-50 44 -226 0
-50 -44 226 0
51 44 227 0
51 -44 -227 0
-51 44 -227 0
-51 -44 227 0
53 52 115 0
53 -52 -115 0
-53 52 -115 0
-53 -52 115 0
54 52 173 0
54 -52 -173 0
-54 52 -173 0
-54 -52 173 0
55 52 195 0
55 -52 -195 0
-55 52 -195 0
-55 -52 195 0
56 52 212 0
56 -52 -212 0
-56 52 -212 0
-56 -52 212 0
58 57 115 0
58 -57 -115 0
-58 57 -115 0
-58 -57 115 0
59 57 148 0
59 -57 -148 0
-59 57 -148 0
-59 -57 148 0
60 57 153 0
60 -57 -153 0
-60 57 -153 0
-60 -57 153 0
61 57 178 0
61 -57 -178 0
-61 57 -178 0
-61 -57 178 0
62 57 212 0
62 -57 -212 0
-62 57 -212 0
-62 -57 212 0
63 57 217 0
63 -57 -217 0
-63 57 -217 0
-63 -57 217 0
64 57 223 0
64 -57 -223 0
-64 57 -223 0
-64 -57 223 0
66 65 76 0
66 -65 -76 0
-66 65 -76 0
-66 -65 76 0
67 65 86 0
67 -65 -86 0
-67 65 -86 0
-67 -65 86 0
68 65 90 0
68 -65 -90 0
-68 65 -90 0
-68 -65 90 0
69 65 133 0
69 -65 -133 0
-69 65 -133 0
-69 -65 133 0
70 65 153 0
70 -65 -153 0
-70 65 -153 0
-70 -65 153 0
71 65 166 0
71 -65 -166 0
-71 65 -166 0
-71 -65 166 0
72 65 184 0
72 -65 -184 0
-72 65 -184 0
-72 -65 184 0
73 65 200 0
73 -65 -200 0
-73 65 -200 0
-73 -65 200 0
74 65 223 0
74 -65 -223 0
-74 65 -223 0
-74 -65 223 0
75 65 224 0
75 -65 -224 0
-75 65 -224 0
-75 -65 224 0
77 76 121 0
77 -76 -121 0
-77 76 -121 0
-77 -76 121 0
78 76 184 0
78 -76 -184 0
-78 76 -184 0
-78 -76 184 0
79 76 203 0
79 -76 -203 0
-79 76 -203 0
-79 -76 203 0
80 76 206 0
80 -76 -206 0
-80 76 -206 0
-80 -76 206 0
81 76 210 0
81 -76 -210 0
-81 76 -210 0
-81 -76 210 0
83 82 115 0
83 -82 -115 0
-83 82 -115 0
-83 -82 115 0
84 82 153 0
84 -82 -153 0
-84 82 -153 0
-84 -82 153 0
85 82 207 0
85 -82 -207 0
-85 82 -207 0
-85 -82 207 0
87 86 148 0
87 -86 -148 0
-87 86 -148 0
-87 -86 148 0
88 86 175 0
88 -86 -175 0
-88 86 -175 0
-88 -86 175 0
89 86 210 0
89 -86 -210 0
-89 86 -210 0
-89 -86 210 0
91 90 153 0
91 -90 -153 0
-91 90 -153 0
-91 -90 153 0
92 90 223 0
92 -90 -223 0
-92 90 -223 0
-92 -90 223 0
93 90 224 0
93 -90 -224 0
-93 90 -224 0
-93 -90 224 0
95 94 173 0
95 -94 -173 0
-95 94 -173 0
-95 -94 173 0
96 94 200 0
96 -94 -200 0
-96 94 -200 0
-96 -94 200 0
97 94 203 0
97 -94 -203 0
-97 94 -203 0
-97 -94 203 0
99 98 121 0
99 -98 -121 0
-99 98 -121 0
-99 -98 121 0
100 98 128 0
100 -98 -128 0
-100 98 -128 0
-100 -98 128 0
101 98 133 0
101 -98 -133 0
-101 98 -133 0
-101 -98 133 0
102 98 138 0
102 -98 -138 0
-102 98 -138 0
-102 -98 138 0
103 98 153 0
103 -98 -153 0
-103 98 -153 0
-103 -98 153 0
104 98 166 0
104 -98 -166 0
-104 98 -166 0
-104 -98 166 0
105 98 173 0
105 -98 -173 0
-105 98 -173 0
-105 -98 173 0
106 98 190 0
106 -98 -190 0
-106 98 -190 0
-106 -98 190 0
107 98 207 0
107 -98 -207 0
-107 98 -207 0
-107 -98 207 0
108 98 224 0
108 -98 -224 0
-108 98 -224 0
-108 -98 224 0
110 109 190 0
110 -109 -190 0
-110 109 -190 0
-110 -109 190 0
111 109 199 0
111 -109 -199 0
-111 109 -199 0
-111 -109 199 0
112 109 220 0
112 -109 -220 0
-112 109 -220 0
-112 -109 220 0
113 109 224 0
113 -109 -224 0
-113 109 -224 0
-113 -109 224 0
114 109 226 0
114 -109 -226 0
-114 109 -226 0
-114 -109 226 0
116 115 121 0
116 -115 -121 0
-116 115 -121 0
-116 -115 121 0
117 115 148 0
117 -115 -148 0
-117 115 -148 0
-117 -115 148 0
118 115 173 0
118 -115 -173 0
-118 115 -173 0
-118 -115 173 0
119 115 203 0
119 -115 -203 0
-119 115 -203 0
-119 -115 203 0
120 115 224 0
120 -115 -224 0
-120 115 -224 0
-120 -115 224 0
122 121 144 0
122 -121 -144 0
-122 121 -144 0
-122 -121 144 0
123 121 166 0
123 -121 -166 0
-123 121 -166 0
-123 -121 166 0
124 121 207 0
124 -121 -207 0
-124 121 -207 0
-124 -121 207 0
125 121 212 0
125 -121 -212 0
-125 121 -212 0
-125 -121 212 0
126 121 224 0
126 -121 -224 0
-126 121 -224 0
-126 -121 224 0
127 121 227 0
127 -121 -227 0
-127 121 -227 0
-127 -121 227 0
129 128 200 0
129 -128 -200 0
-129 128 -200 0
-129 -128 200 0
130 128 203 0
130 -128 -203 0
-130 128 -203 0
-130 -128 203 0
131 128 220 0
131 -128 -220 0
-131 128 -220 0
-131 -128 220 0
132 128 226 0
132 -128 -226 0
-132 128 -226 0
-132 -128 226 0
134 133 181 0
134 -133 -181 0
-134 133 -181 0
-134 -133 181 0
135 133 184 0
135 -133 -184 0
-135 133 -184 0
-135 -133 184 0
136 133 200 0
136 -133 -200 0
-136 133 -200 0
-136 -133 200 0
137 133 224 0
137 -133 -224 0
-137 133 -224 0
-137 -133 224 0
139 138 178 0
139 -138 -178 0
-139 138 -178 0
-139 -138 178 0
140 138 215 0
140 -138 -215 0
-140 138 -215 0
-140 -138 215 0
141 138 220 0
141 -138 -220 0
-141 138 -220 0
-141 -138 220 0
142 138 223 0
142 -138 -223 0
-142 138 -223 0
-142 -138 223 0
143 138 224 0
143 -138 -224 0
-143 138 -224 0
-143 -138 224 0
145 144 166 0
145 -144 -166 0
-145 144 -166 0
-145 -144 166 0
146 144 199 0
146 -144 -199 0
-146 144 -199 0
-146 -144 199 0
147 144 203 0
147 -144 -203 0
-147 144 -203 0
-147 -144 203 0
149 148 184 0
149 -148 -184 0
-149 148 -184 0
-149 -148 184 0
150 148 190 0
150 -148 -190 0
-150 148 -190 0
-150 -148 190 0
151 148 195 0
151 -148 -195 0
-151 148 -195 0
-151 -148 195 0
152 148 199 0
152 -148 -199 0
-152 148 -199 0
-152 -148 199 0
154 153 199 0
154 -153 -199 0
-154 153 -199 0
-154 -153 199 0
155 153 220 0
155 -153 -220 0
-155 153 -220 0
-155 -153 220 0
156 153 226 0
156 -153 -226 0
-156 153 -226 0
-156 -153 226 0
158 157 194 0
158 -157 -194 0
-158 157 -194 0
-158 -157 194 0
159 157 207 0
159 -157 -207 0
-159 157 -207 0
-159 -157 207 0
160 157 226 0
160 -157 -226 0
-160 157 -226 0
-160 -157 226 0
162 161 184 0
162 -161 -184 0
-162 161 -184 0
-162 -161 184 0
163 161 195 0
163 -161 -195 0
-163 161 -195 0
-163 -161 195 0
164 161 224 0
164 -161 -224 0
-164 161 -224 0
-164 -161 224 0
165 161 226 0
165 -161 -226 0
-165 161 -226 0
-165 -161 226 0
167 166 173 0
167 -166 -173 0
-167 166 -173 0
-167 -166 173 0
168 166 190 0
168 -166 -190 0
-168 166 -190 0
-168 -166 190 0
169 166 200 0
169 -166 -200 0
-169 166 -200 0
-169 -166 200 0
170 166 206 0
170 -166 -206 0
-170 166 -206 0
-170 -166 206 0
171 166 209 0
171 -166 -209 0
-171 166 -209 0
-171 -166 209 0
172 166 220 0
172 -166 -220 0
-172 166 -220 0
-172 -166 220 0
174 173 199 0
174 -173 -199 0
-174 173 -199 0
-174 -173 199 0
176 175 184 0
176 -175 -184 0
-176 175 -184 0
-176 -175 184 0
177 175 199 0
177 -175 -199 0
-177 175 -199 0
-177 -175 199 0
179 178 209 0
179 -178 -209 0
-179 178 -209 0
-179 -178 209 0
180 178 210 0
180 -178 -210 0
-180 178 -210 0
-180 -178 210 0
182 181 199 0
182 -181 -199 0
-182 181 -199 0
-182 -181 199 0
183 181 226 0
183 -181 -226 0
-183 181 -226 0
-183 -181 226 0
185 184 190 0
185 -184 -190 0
-185 184 -190 0
-185 -184 190 0
186 184 200 0
186 -184 -200 0
-186 184 -200 0
-186 -184 200 0
187 184 203 0
187 -184 -203 0
-187 184 -203 0
-187 -184 203 0
188 184 220 0
188 -184 -220 0
-188 184 -220 0
-188 -184 220 0
189 184 224 0
189 -184 -224 0
-189 184 -224 0
-189 -184 224 0
191 190 195 0
191 -190 -195 0
-191 190 -195 0
-191 -190 195 0
192 190 199 0
192 -190 -199 0
-192 190 -199 0
-192 -190 199 0
193 190 215 0
193 -190 -215 0
-193 190 -215 0
-193 -190 215 0
196 195 206 0
196 -195 -206 0
-196 195 -206 0
-196 -195 206 0
197 195 207 0
197 -195 -207 0
-197 195 -207 0
-197 -195 207 0
198 195 215 0
198 -195 -215 0
-198 195 -215 0
-198 -195 215 0
201 200 209 0
201 -200 -209 0
-201 200 -209 0
-201 -200 209 0
202 200 215 0
202 -200 -215 0
-202 200 -215 0
-202 -200 215 0
204 203 215 0
204 -203 -215 0
-204 203 -215 0
-204 -203 215 0
205 203 217 0
205 -203 -217 0
-205 203 -217 0
-205 -203 217 0
208 207 223 0
208 -207 -223 0
-208 207 -223 0
-208 -207 223 0
211 210 217 0
211 -210 -217 0
-211 210 -217 0
-211 -210 217 0
213 212 223 0
213 -212 -223 0
-213 212 -223 0
-213 -212 223 0
214 212 226 0
214 -212 -226 0
-214 212 -226 0
-214 -212 226 0
216 215 217 0
216 -215 -217 0
-216 215 -217 0
-216 -215 217 0
218 217 220 0
218 -217 -220 0
-218 217 -220 0
-218 -217 220 0
219 217 224 0
219 -217 -224 0
-219 217 -224 0
-219 -217 224 0
221 220 224 0
221 -220 -224 0
-221 220 -224 0
-221 -220 224 0
222 220 226 0
222 -220 -226 0
-222 220 -226 0
-222 -220 226 0
225 224 226 0
225 -224 -226 0
-225 224 -226 0
-225 -224 226 0
